10J3M/DAT/10J3MUNR-12.dat
10 3
39.2586 12.6321
2.7161 26.9469
22.6792 2.0701
8.403 23.4432
42.3874 11.4036
11.8458 16.5159
48.356 0.7702
48.0925 35.8901
16.1073 17.2112
21.7034 22.9443
169.8276