10J3M/SOL/10J3MUNR-12.sol
solution status: optimal solution found
objective value:                     44.6131333333333
x#1#3                                               1 	(obj:0)
x#2#2                                               1 	(obj:0)
x#3#2                               0.910666793894063 	(obj:0)
x#3#3                              0.0893332061059371 	(obj:0)
x#4#2                                               1 	(obj:0)
x#5#1                                               1 	(obj:0)
x#6#3                                               1 	(obj:0)
x#7#1                                0.65136410732725 	(obj:0)
x#7#3                                0.34863589267275 	(obj:0)
x#8#2                                               1 	(obj:0)
x#9#1                                               1 	(obj:0)
x#10#3                                              1 	(obj:0)
z                                    44.6131333333333 	(obj:1)
